GLPSOL: GLPK LP/MIP Solver, v4.55
Parameter(s) specified in the command line:
 -m tmp.mod
Reading model section from tmp.mod...
Reading data section from tmp.mod...
7237 lines were read
Generating obj...
Generating kirhoff...
Generating init_charge...
Generating batt_size...
Model has been successfully generated
GLPK Simplex Optimizer, v4.55
7792 rows, 13404 columns, 28694 non-zeros
Preprocessing...
6378 rows, 13195 columns, 28251 non-zeros
Scaling...
 A: min|aij| =  1.000e+00  max|aij| =  1.000e+00  ratio =  1.000e+00
Problem data seem to be well scaled
Constructing initial basis...
Size of triangular part is 5456
      0: obj =   0.000000000e+00  infeas =  6.750e+03 (922)
    500: obj =   0.000000000e+00  infeas =  4.665e+03 (767)
   1000: obj =   1.400000000e+01  infeas =  3.069e+03 (584)
   1500: obj =   1.000000000e+02  infeas =  2.220e+03 (503)
   2000: obj =   2.860000000e+02  infeas =  9.860e+02 (434)
   2500: obj =   5.050000000e+02  infeas =  3.150e+02 (406)
*  2807: obj =   6.125000000e+02  infeas =  7.772e-16 (392)
*  3000: obj =   5.160000000e+02  infeas =  2.418e-14 (391)
*  3500: obj =   3.100000000e+02  infeas =  0.000e+00 (369)
*  3962: obj =   1.780000000e+02  infeas =  0.000e+00 (366)
OPTIMAL LP SOLUTION FOUND
Time used:   2.0 secs
Memory used: 25.9 Mb (27136091 bytes)
#OUTPUT:
178
-93 -26 -10 0 -5 -12 -1 -9 -57 -12 -6 -6 -10 -10 0 0 -6 1 0 0 -42 0 0 0 0 0 -6 0 0 0 -8 -7 0 0 0 40 0 0 98 -6 0 0 0 0 0 -6 0 0 0 0 0 0 -14 -3 0 0 0 0 0 0 0 0 -3 0 0 0 0 -9 0 0 0 -93 0 4 0 0 0 0 0 -6 0 0 0 0 0 0 0 0 0 0 0 0 0 0 0 0 0 0 0 0 0 0 98 0 0 0 0 0 0 0 10 0 0 0 0 0 0 40 0 0 -95 0 0 0 0 0 0 -24 0 0 0 0 0 0 0 0 0 2 0 0 0 0 0 0 0 0 0 0 -42 0 0 0 0 0 0 -40 0 0 0 0 0 0 0 0 0 0 0 0 0 0 0 0 0 -7 0 0 0 48 0 0 0 0 0 0 0 0 6 0 0 0 0 0 0 0 0 0 0 0 0 0 0 0 0 0 0 0 0 -54 0 0 0 1 0 0 0 0 0 0 0 0 0 0 -4 0 0 0 0 0 0 0 0 0 0 0 0 0 0 0 4 0 0 0 0 0 0 0 0 0 0 0 0 0 0 0 0 40 0 0 0 0 0 0 0 0 0 0 0 0 0 0 0 -3 0 0 0 0 0 0 10 0 0 0 0 0 0 0 0 0 0 0 0 0 0 0 0 0 0 0 0 0 1 0 0 0 0 0 0 0 0 0 0 0 0 0 0 0 0 0 0 0 0 0 0 0 0 0 0 0 0 0 0 0 0 0 0 84 0 0 0 0 0 0 0 0 0 0 0 0 0 0 0 0 0 0 0 0 0 0 0 0 0 0 0 -2 0 0 0 0 6 0 0 0 0 0 0 0 0 0 -2 0 0 0 0 0 0 0 0 0 0 0 0 0 0 0 0 0 0 0 0 -6 0 0 0 0 0 -99 0 -10 0 0 0 0 0 0 0 0 -48 0 0 0 0 0 0 0 0 0 0 0 0 -1 1 0 0 0 40 -40 0 0 0 0 0 0 -7 -3 0 0 0 -1 0 0 0 0 0 0 0 0 0 0 0 0 0 0 0 0 0 0 0 0 0 0 0 0 0 0 0 -6 0 0 0 0 0 0 0 0 0 2 0 0 0 0 0 0 0 0 0 0 0 -24 -54 84 -4 0 0 0 0 0 0 0 0 0 0 0 0 0 0 0 0 0 0 0 0 0 0 0 0 0 0 0 0 0 0 0 0 0 0 0 0 0 0 0 0 0 0 0 0 0 0 0 0 
-74 -10 0 0 2 -9 -1 -3 0 -9 -2 0 5 0 0 0 0 -1 0 5 0 0 0 0 -5 0 -3 0 0 0 0 -27 0 0 5 -2 0 0 0 0 0 -4 0 0 0 4 8 0 0 0 -2 0 0 2 0 0 0 5 0 0 0 0 2 0 0 0 0 0 0 0 0 0 -5 5 0 0 0 0 2 -3 -64 0 0 1 0 0 0 0 0 0 0 -1 0 0 0 0 0 0 0 1 0 0 9 0 0 0 0 0 0 0 0 0 0 0 0 0 5 0 0 0 0 -64 0 0 4 0 0 0 0 0 0 0 -5 5 0 0 -1 0 0 0 0 0 0 -5 0 0 0 0 0 0 5 0 0 0 0 0 0 0 0 0 0 0 0 0 0 0 0 0 0 0 0 0 -7 -27 7 0 0 0 3 0 0 0 -3 0 0 0 4 0 0 0 0 -24 0 0 0 0 0 0 0 0 0 0 0 0 0 0 0 -2 -1 0 0 1 0 0 2 -2 0 0 0 0 0 0 -6 0 0 0 0 0 0 0 1 0 0 0 0 0 0 0 6 0 0 0 0 0 0 0 19 0 0 0 0 0 0 0 9 10 0 0 0 0 0 0 0 0 0 0 0 0 0 0 0 2 2 0 0 0 0 0 20 0 0 0 0 0 0 0 0 0 0 0 0 0 0 0 0 10 0 0 0 0 0 0 -7 0 0 0 0 0 0 0 0 0 0 0 0 0 0 0 0 0 0 0 -7 0 0 0 0 0 0 0 0 -4 0 -1 0 0 0 0 0 0 3 0 0 0 0 0 0 0 0 0 -1 0 0 0 0 0 0 -1 0 0 0 -2 0 0 0 0 0 0 4 0 0 0 0 0 -2 0 0 0 0 0 0 0 0 0 0 0 0 0 0 0 0 0 0 1 0 0 0 0 0 2 2 0 0 0 -5 -11 0 0 5 0 0 0 0 0 5 -9 0 -3 -4 0 0 0 0 0 -3 5 0 0 0 -1 1 0 0 0 -9 0 -10 0 0 0 -2 0 -22 2 0 0 0 0 0 0 7 0 0 0 0 0 0 0 0 4 0 -3 0 0 1 0 1 0 0 9 -7 0 0 0 0 -4 0 0 0 0 0 2 0 0 0 0 0 0 0 0 0 0 -1 0 0 0 0 0 -2 0 -2 0 0 0 0 0 0 0 0 0 0 0 0 0 0 0 0 0 0 0 0 0 0 0 0 0 0 0 0 0 0 0 0 0 0 0 0 0 0 0 0 0 0 0 0 0 0 0 0 
-93 -4 -10 0 0 0 1 -4 -78 0 0 0 -10 -7 0 -4 -6 0 0 0 0 0 0 -2 0 0 0 0 0 0 -8 -22 0 0 0 8 0 0 9 -10 0 0 0 -7 0 0 4 0 0 0 -1 0 0 0 0 20 -1 0 0 0 0 -22 0 -2 0 0 20 0 0 0 0 0 0 -5 0 0 0 0 0 0 0 0 0 0 0 0 0 0 0 -2 0 0 0 0 0 0 0 0 0 0 0 -21 9 0 0 0 0 0 0 0 0 0 0 0 0 0 0 1 0 0 0 0 0 0 0 0 0 0 0 0 0 0 0 0 0 0 -4 0 0 0 0 0 0 -7 0 -1 0 1 0 0 0 0 0 0 0 3 0 0 -2 0 0 0 0 0 0 0 0 0 0 0 0 0 -7 -22 0 0 0 8 0 1 0 0 -4 0 0 0 -16 0 0 0 0 -7 0 0 0 0 0 0 0 0 0 0 0 0 0 0 0 0 0 4 0 0 0 0 0 0 -2 0 0 0 0 0 -10 0 0 0 0 0 0 0 0 -9 0 0 0 0 0 4 -5 -1 0 1 0 0 0 -1 0 0 0 0 0 0 0 0 9 -8 0 0 0 0 0 0 0 0 0 0 0 0 0 0 0 0 0 0 0 0 1 0 -5 0 0 0 0 0 0 0 0 0 0 0 0 0 0 0 0 10 0 0 0 0 0 0 -7 0 0 0 0 0 0 0 0 0 0 0 0 0 0 0 0 -4 0 0 0 0 0 0 0 0 0 0 0 0 0 0 0 0 0 0 0 0 0 0 0 0 0 0 0 0 0 0 0 0 0 0 0 0 -6 -4 0 0 0 0 0 0 -15 0 0 0 -10 0 -1 0 0 0 0 -70 0 -22 0 0 0 0 0 0 0 0 0 0 0 0 0 0 0 -1 0 0 0 0 0 0 0 0 0 0 0 -9 0 0 0 -7 0 0 0 0 27 0 -8 0 4 0 0 0 0 0 0 0 -1 0 0 0 0 -1 0 1 -8 3 -10 0 0 0 0 -1 5 0 0 -3 0 0 0 0 7 0 0 0 0 4 0 -9 0 0 0 0 0 0 0 0 0 4 0 9 -9 15 0 0 0 10 0 0 0 1 0 0 0 -6 22 0 0 0 0 0 0 1 0 0 0 0 0 0 0 0 0 0 0 0 0 0 0 0 0 0 0 0 0 0 0 0 0 0 0 0 0 0 0 0 0 0 0 0 0 0 0 0 0 0 0 0 0 0 0 0 0 0 0 0 0 0 0 0 0 
-93 -18 -10 0 -6 0 -1 -12 -72 0 0 0 -4 0 0 -6 -6 1 17 0 0 -2 0 0 -3 -6 0 0 0 -2 0 -37 0 0 0 0 6 0 0 0 0 -4 0 -5 0 0 3 0 0 0 0 0 6 0 -6 0 3 0 0 0 -2 0 0 5 0 15 0 -9 0 0 0 -3 -5 0 0 0 0 -2 0 -1 -1 0 0 1 0 0 0 0 0 0 0 0 0 3 3 0 1 0 0 1 0 0 0 0 0 0 0 0 0 0 0 0 0 0 2 0 0 -2 0 0 0 -1 0 0 0 -3 0 6 0 0 0 0 -5 0 0 0 -4 -3 0 0 0 0 0 -25 0 0 0 0 0 0 17 -3 0 0 0 0 0 0 0 0 0 0 0 0 0 0 0 -3 0 0 0 0 0 -37 0 0 0 72 0 1 0 0 -1 0 0 0 0 0 0 0 0 -46 0 0 0 0 0 0 0 0 0 0 0 0 0 0 0 0 -1 0 0 1 -3 0 0 0 0 15 0 0 0 0 0 -1 1 2 0 0 -1 0 1 -9 0 0 0 0 0 4 1 0 1 0 0 0 0 -2 21 0 0 0 0 0 0 0 9 10 0 0 0 0 0 0 2 -3 0 0 0 0 0 -77 0 0 0 0 0 0 0 0 11 -6 0 0 0 0 0 0 0 0 -2 0 0 0 0 0 0 0 0 0 0 5 0 0 0 0 0 0 0 0 0 0 0 0 0 0 0 -2 0 0 0 0 -8 0 0 0 0 -2 0 0 0 -6 0 0 17 -1 0 -6 0 0 0 0 3 0 0 0 0 0 0 0 0 0 -1 -8 0 0 0 0 0 -4 0 -2 0 0 0 0 0 0 0 0 0 0 0 0 0 0 0 0 0 0 0 0 0 0 -17 0 0 0 -77 0 0 0 0 0 0 0 0 0 0 0 0 0 15 0 0 0 -3 0 0 0 1 -20 0 0 0 3 26 0 -72 0 0 1 0 0 0 0 0 0 3 1 0 0 1 0 0 2 -11 0 -10 0 0 0 0 0 -11 0 0 3 1 0 0 0 0 0 0 2 0 0 0 -9 6 0 0 -3 0 0 1 -8 0 4 2 9 -9 0 0 0 0 0 -6 0 6 0 0 0 0 0 0 0 0 17 17 -17 0 1 -1 0 2 -2 0 6 0 -6 -8 -3 0 0 0 0 0 0 0 0 0 0 0 0 0 0 0 0 0 0 0 0 0 0 0 0 0 0 0 0 0 0 0 0 0 0 0 0 0 0 0 0 0 0 0 0 0 0 0 
-11 0 -5 0 0 0 0 0 -7 0 0 0 0 0 0 0 0 0 0 0 0 0 0 0 0 0 0 0 0 0 0 0 0 0 0 0 0 0 0 0 0 0 0 -7 0 0 0 0 0 0 0 0 0 0 0 0 0 0 4 0 0 0 0 0 0 0 0 0 0 0 0 0 0 0 0 0 0 0 0 0 -4 0 4 0 0 0 0 0 0 0 0 0 0 0 0 0 0 0 0 0 0 0 0 0 0 0 0 0 0 0 0 0 0 0 0 0 0 0 0 0 0 -4 0 0 0 0 0 0 0 0 0 0 0 0 0 0 0 0 0 0 0 0 0 -7 0 0 0 0 0 0 0 0 0 0 0 0 0 0 0 0 0 0 0 5 0 0 0 0 0 0 0 0 0 0 0 0 0 7 0 0 0 0 4 0 0 0 0 0 0 0 0 -7 0 0 0 0 0 0 0 0 0 0 0 0 0 -5 0 0 0 0 0 0 0 0 0 0 0 0 0 0 0 0 0 0 0 0 0 0 0 0 0 0 0 0 0 0 0 0 0 0 0 0 0 0 0 0 0 0 0 0 0 0 0 0 0 0 0 0 0 0 0 0 0 0 0 0 0 0 0 0 0 0 0 0 0 0 0 0 0 0 0 0 0 0 0 0 0 0 0 0 0 0 0 0 0 0 0 0 0 0 0 0 0 0 0 0 0 0 0 0 0 0 0 0 0 0 0 0 0 0 0 0 0 0 0 0 0 0 0 0 0 0 0 0 0 0 0 0 0 0 0 0 0 0 0 0 0 0 0 0 0 0 0 0 0 0 0 0 0 0 0 0 0 0 0 0 0 0 0 0 0 0 0 0 0 0 0 0 0 0 0 0 0 0 0 0 0 0 0 0 0 0 0 0 0 0 0 0 0 0 0 0 0 0 0 0 0 0 4 -7 0 0 0 0 0 0 -7 0 -4 0 0 0 5 0 0 0 0 0 0 0 0 0 0 0 0 0 0 0 0 0 0 0 0 0 0 0 0 0 0 0 0 0 0 0 0 0 0 0 0 0 0 0 0 0 0 0 0 0 0 0 0 0 0 0 0 0 0 0 0 0 0 0 0 0 0 0 0 0 0 0 0 0 0 0 0 0 0 0 0 0 0 0 0 0 0 0 0 0 0 0 0 0 0 0 0 0 0 0 0 0 0 0 0 0 0 0 0 0 0 0 0 0 0 0 0 0 0 0 0 0 0 0 0 0 0 0 0 0 0 
-90 -34 -10 0 -4 -12 0 -8 -36 -12 -2 -1 -10 -6 0 6 -4 0 0 0 0 0 0 -5 0 -4 -24 0 0 0 0 0 0 0 0 0 0 0 0 10 2 -1 0 0 0 0 -4 0 0 0 0 0 2 -4 0 0 0 0 0 0 0 0 -4 0 0 0 0 -3 0 0 0 -3 0 4 -5 0 2 0 0 15 10 0 0 0 0 0 0 0 0 0 0 0 0 0 0 0 -5 0 -5 0 0 0 0 0 0 0 0 0 0 0 0 0 0 0 0 0 0 0 0 0 0 10 0 0 3 0 0 2 -10 0 0 0 0 10 0 0 0 -3 0 0 0 0 0 0 0 0 0 0 0 0 0 0 0 0 0 -24 0 0 2 0 0 0 0 0 0 0 0 0 0 0 0 -61 0 0 0 0 0 30 0 0 0 0 9 -2 2 0 0 0 -5 0 0 -24 0 0 0 0 0 0 0 0 0 0 0 0 0 0 0 0 0 -10 0 0 0 0 2 0 0 0 0 0 0 0 4 -22 0 0 0 0 0 0 0 0 0 0 0 0 0 0 4 0 0 0 0 0 0 0 24 0 0 0 0 0 0 0 0 24 0 0 0 0 0 0 0 0 0 0 0 0 0 0 0 -4 0 0 0 0 0 0 4 -4 0 -61 0 2 0 0 0 0 -2 0 0 0 0 0 0 0 0 0 0 0 0 0 0 0 0 0 0 0 0 0 0 0 0 0 0 4 -2 0 0 -24 0 0 0 0 0 0 0 0 0 0 0 0 0 0 0 0 0 0 0 0 0 0 0 0 0 0 0 1 0 0 0 0 0 0 0 0 0 0 0 0 0 0 0 3 0 0 0 0 0 -2 0 0 0 0 0 0 0 0 3 0 0 0 0 0 0 0 0 0 0 0 0 0 0 0 0 0 0 1 0 -2 0 -3 0 0 0 0 0 0 0 0 0 0 0 0 0 0 -30 0 -4 -5 -2 5 0 0 -10 10 0 22 0 0 0 0 0 0 0 -24 0 0 0 0 0 0 0 -4 0 0 0 0 0 0 0 0 0 -4 2 25 0 0 0 3 0 0 0 0 0 0 0 0 0 0 0 0 0 0 0 0 0 2 0 0 0 2 -2 0 0 -3 0 0 0 0 0 0 0 0 0 0 -1 2 0 0 -4 0 3 0 0 0 0 0 0 0 0 0 0 0 0 0 0 0 0 0 0 0 0 0 0 0 0 0 0 0 0 0 0 0 0 0 0 0 0 0 0 0 0 0 0 0 0 0 0 
-56 -5 -2 0 -1 0 -1 -4 -27 0 0 0 -2 -14 0 6 0 5 0 0 0 -1 0 0 0 0 12 0 0 0 0 -10 0 0 0 0 0 0 0 0 0 0 0 0 0 0 -4 0 -1 0 0 0 10 0 0 0 0 0 0 0 0 -4 0 0 0 0 0 0 0 -1 0 0 0 0 0 0 0 0 0 -6 0 0 0 0 0 0 0 0 0 0 0 0 0 0 0 0 0 0 0 0 0 0 0 0 0 0 0 0 0 0 10 0 0 0 0 0 0 -6 0 0 0 0 0 -4 0 0 0 0 0 0 0 0 0 0 0 0 0 0 0 0 0 0 0 0 0 -4 0 0 0 0 0 0 0 0 0 -21 0 0 0 0 0 0 0 0 0 0 0 0 0 0 0 0 0 -10 0 0 0 27 0 0 0 0 0 0 0 0 0 0 0 0 0 0 0 0 0 0 0 0 0 0 0 0 0 0 0 0 0 0 0 0 0 1 0 0 0 0 0 0 0 0 0 0 0 -18 0 0 0 0 -1 0 0 0 0 0 0 0 0 0 0 0 0 0 0 0 0 0 0 0 0 0 0 0 0 0 0 31 0 0 0 0 0 0 0 0 0 0 0 0 0 0 0 0 0 0 0 0 0 0 10 0 0 0 0 0 0 0 0 0 0 0 0 0 0 0 0 0 0 0 0 0 0 0 0 0 0 0 0 0 0 0 0 0 0 0 0 0 0 0 0 -9 0 0 -4 0 0 0 0 0 0 0 0 0 0 0 0 0 0 -4 0 0 0 0 0 0 0 0 0 0 0 0 0 0 0 0 0 0 0 0 0 0 0 4 0 0 0 0 0 0 0 0 -4 0 0 0 0 0 0 -4 0 0 0 0 0 0 0 0 0 0 0 0 0 0 0 0 0 0 0 0 0 0 0 0 0 0 0 0 0 -10 0 0 0 0 0 0 0 0 -27 0 -4 0 0 0 0 0 0 0 0 18 0 0 1 0 0 0 31 -21 -10 0 0 0 0 0 -10 0 0 0 0 0 0 0 0 0 0 0 0 9 0 0 0 0 4 0 0 0 0 0 0 0 0 0 -4 0 0 0 0 0 0 0 0 4 0 0 0 0 4 0 0 0 0 0 0 0 0 0 0 0 0 0 0 0 0 0 0 0 0 0 0 0 0 0 0 0 0 0 0 0 0 0 0 0 0 0 0 0 0 0 0 0 0 0 0 0 0 0 0 0 0 0 0 0 0 0 0 0 0 0 0 0 0 
-93 -34 -10 0 0 -43 1 0 -6 12 0 0 -10 -41 0 6 -6 0 -1 0 0 -3 -35 7 0 0 35 -3 0 0 8 -18 0 0 0 58 -6 0 63 -2 0 0 -7 0 0 6 3 -1 -3 0 -5 7 1 0 -31 -38 -1 0 3 0 0 0 0 -9 0 2 48 9 0 -2 0 -3 0 9 2 0 0 0 4 13 -27 1 3 0 0 0 0 0 0 5 0 0 0 3 3 0 -5 -37 2 0 -2 0 72 0 0 0 0 0 0 0 -10 0 0 0 6 0 0 1 0 0 0 0 0 2 -4 2 -10 11 9 4 -35 -18 0 0 0 0 -4 -3 0 0 0 0 6 0 0 0 0 1 0 0 0 -3 0 0 0 0 0 0 -18 -1 0 0 0 -5 0 0 0 -3 0 0 -5 0 -3 -18 4 0 0 0 4 2 0 0 9 -2 2 0 -4 0 2 0 0 19 0 0 0 0 0 0 0 0 0 0 0 0 3 5 0 -34 0 -4 5 0 2 0 0 -5 5 2 0 -1 0 0 -2 -22 0 -3 1 0 5 0 0 -9 0 0 0 0 0 4 9 -2 0 2 0 0 0 -2 -19 0 0 0 0 -2 0 0 -2 -16 0 -3 0 0 0 0 6 -3 0 0 0 0 -4 0 0 0 7 0 0 0 1 0 9 0 -6 0 0 -6 0 5 0 -28 -9 0 0 0 0 0 0 0 0 0 0 5 1 0 -3 0 0 0 0 0 0 0 0 0 0 -3 3 8 0 0 3 18 8 0 0 -1 0 0 0 0 0 -31 0 4 0 -1 3 12 0 2 0 0 -3 0 0 0 0 0 0 -6 0 -23 0 -8 0 0 0 0 6 -4 0 -6 0 0 0 0 -26 -3 0 -1 -10 -9 0 0 0 0 0 -6 0 19 0 -26 0 0 0 5 0 0 0 0 -5 0 0 0 0 -1 2 3 0 -3 0 6 2 0 0 7 0 -83 0 -39 0 0 0 0 0 3 9 -9 0 -4 -4 -5 -2 -2 -5 5 5 0 -1 22 0 -5 0 -2 0 2 3 0 -10 3 0 0 -7 -1 -9 0 -2 4 0 -4 3 -4 7 0 0 -8 0 -24 0 -9 31 -4 -2 3 3 -6 0 8 0 4 6 -2 2 27 -1 3 1 10 15 -6 0 0 0 0 0 6 -19 0 26 0 0 0 5 2 -1 -2 -3 0 3 11 -29 12 0 2 0 0 0 0 0 0 0 0 0 0 0 0 0 0 0 0 0 0 0 0 0 0 0 0 0 0 0 0 0 0 0 0 0 0 0 0 0 0 0 0 0 0 0 0 0 0 0 
-93 -34 -10 0 -6 0 -1 -28 -5 0 2 1 0 -23 0 0 -6 0 0 -1 0 -10 0 0 -4 -6 0 0 0 0 0 -19 -10 -24 -1 2 0 0 2 -1 1 0 -6 -7 0 0 0 0 0 0 0 0 0 0 0 0 0 -1 0 0 2 -22 0 6 0 0 0 -3 0 0 0 -3 0 0 0 0 1 1 6 0 0 0 0 0 0 0 0 0 -6 0 0 1 0 0 0 0 0 0 0 0 -2 -22 2 0 0 0 0 -2 -6 0 0 0 0 0 0 0 -1 -1 0 0 0 0 0 -31 0 0 0 0 0 0 0 0 0 0 0 0 0 -3 -9 0 0 0 2 -19 0 0 6 0 0 0 0 0 0 0 0 0 0 0 6 0 0 0 0 0 0 0 0 0 0 0 0 0 -8 -19 0 0 0 7 0 0 -79 0 4 0 0 0 0 0 0 0 0 -17 0 0 0 0 0 0 0 0 0 0 0 0 0 0 0 0 0 1 0 0 0 0 0 0 0 0 0 0 0 0 -10 0 -14 0 0 0 0 0 0 -9 0 0 0 0 0 0 0 7 0 -7 0 0 0 8 -2 0 0 0 0 0 0 0 9 0 0 0 0 -1 0 -1 0 0 0 0 0 0 0 0 0 0 7 0 0 0 0 0 10 -6 0 0 0 0 0 0 0 0 0 0 0 0 0 0 0 10 0 0 0 0 1 0 -7 0 0 0 0 0 0 0 0 0 0 -1 0 8 0 0 1 -21 2 0 0 0 0 0 0 0 0 0 0 0 1 0 0 0 0 -31 0 0 3 0 0 0 0 0 0 0 0 0 0 0 0 0 0 0 0 0 0 0 0 0 0 3 -10 -1 0 0 0 0 0 0 0 0 0 0 0 -22 3 0 0 0 -1 0 0 0 0 0 0 0 0 0 0 0 0 1 0 0 0 0 0 0 0 -1 -4 -10 -7 0 0 -19 0 -6 0 0 9 0 -7 0 -4 0 0 0 0 0 0 0 0 0 14 0 0 7 0 -8 2 0 -10 0 1 0 -7 0 -10 0 0 0 0 -1 0 0 7 0 0 -8 0 21 0 -9 0 0 -30 -3 0 0 0 2 0 0 0 9 -9 10 0 1 0 0 -2 0 2 0 0 0 0 0 22 -3 0 1 10 -10 0 0 0 0 -1 0 0 0 0 0 -4 0 0 0 0 0 0 0 0 0 0 0 0 0 0 0 0 0 0 0 0 0 0 0 0 0 0 0 0 0 0 0 0 0 0 0 0 0 0 0 0 0 0 0 0 0 0 0 0 
-93 1 -10 0 -6 9 1 5 -70 12 2 0 1 0 0 -6 -6 1 -32 -5 -3 0 0 -2 -3 -1 12 6 0 0 8 -58 1 1 -5 72 -6 0 77 5 3 0 -3 -7 0 6 0 0 0 0 -5 3 13 0 -4 0 6 -5 0 0 -30 0 0 -9 0 22 0 8 0 0 0 -3 1 5 0 0 3 0 2 1 0 3 0 0 0 0 0 0 0 -2 -57 5 0 3 3 0 0 0 0 0 -2 1 86 0 0 0 0 -2 0 0 0 0 0 0 35 0 -5 3 0 5 0 0 0 0 3 -10 -6 13 -7 5 0 -3 1 0 0 0 0 -3 -9 0 5 0 5 21 0 -1 0 1 0 0 -5 -3 0 0 0 15 0 5 8 0 0 0 0 -5 0 0 0 -3 0 0 0 0 -3 -58 1 0 0 72 3 2 0 0 -5 0 0 0 -16 0 0 0 0 29 0 0 0 0 0 0 0 0 0 0 0 0 0 5 0 -40 0 -10 0 1 -10 0 0 -8 -2 22 0 0 0 0 0 -11 1 6 3 0 0 0 0 9 0 0 0 0 0 0 5 0 1 0 0 0 0 0 -8 0 -3 0 0 0 0 0 0 -5 0 0 0 -3 0 -3 35 0 0 0 0 -5 3 0 5 0 7 0 0 0 1 0 20 -6 -2 0 0 0 0 0 0 0 -3 0 0 0 0 0 0 1 0 0 0 0 1 0 0 0 0 0 0 -18 0 0 0 0 0 -5 0 6 2 0 0 -24 0 -1 -9 0 0 -3 0 0 0 -4 0 0 -86 0 0 11 0 0 0 0 1 0 0 0 0 0 0 1 0 -3 0 0 0 0 0 0 0 0 0 -35 0 0 -62 0 0 -5 0 0 5 0 -1 0 0 0 2 0 0 0 0 -3 0 0 0 0 0 -79 0 -62 0 0 0 0 0 -2 0 0 0 1 0 6 22 -3 0 -4 -3 -97 -7 0 0 20 0 0 0 3 38 -9 -72 -3 -4 0 0 0 -5 5 -10 0 6 11 0 -1 1 0 0 0 3 15 -10 0 3 -5 -7 0 -20 0 0 4 1 -4 3 -4 4 18 0 -6 -2 25 1 9 4 3 0 -1 0 3 0 0 0 0 35 0 0 0 0 5 0 -5 0 0 0 1 0 0 -2 0 0 0 3 0 3 59 0 2 0 0 3 -3 -1 13 -30 11 -8 -10 3 0 0 0 0 0 0 0 0 0 0 0 0 0 0 0 0 0 0 0 0 0 0 0 0 0 0 0 0 0 0 0 0 0 0 0 0 0 0 0 0 0 0 0 0 0 0 
-51 0 0 0 0 0 0 0 0 0 0 0 0 0 0 0 0 0 0 0 0 0 0 0 0 0 0 0 0 0 0 0 0 0 0 0 0 0 0 0 0 0 0 0 0 0 0 0 0 0 0 0 0 0 0 0 0 0 0 0 0 0 0 0 0 0 0 0 0 0 0 0 0 0 0 0 0 0 0 0 0 0 0 0 0 0 0 0 0 0 0 0 0 0 0 0 0 0 0 0 0 0 0 0 0 0 0 0 0 0 0 0 0 0 0 0 0 0 0 0 0 0 0 0 0 0 0 0 0 0 0 0 0 0 0 0 0 0 0 0 0 0 0 0 0 0 0 0 0 0 0 0 0 0 0 0 0 0 0 0 0 0 0 0 0 0 0 0 0 0 0 0 0 0 0 0 0 0 0 0 0 0 0 0 0 0 0 0 0 0 0 0 0 0 0 0 0 0 0 0 0 0 0 0 0 0 0 0 0 0 0 0 0 0 0 0 0 0 0 0 0 0 0 0 0 0 0 0 0 0 0 0 0 0 0 0 0 0 0 0 0 0 0 0 0 0 0 0 0 0 0 0 0 0 0 0 0 0 0 0 0 0 0 0 0 0 0 0 0 0 0 0 0 0 0 0 0 0 0 0 0 0 0 0 0 0 0 0 0 0 0 0 0 0 0 0 0 0 0 0 0 0 0 0 0 0 0 0 0 0 0 0 0 0 0 0 0 0 0 0 0 0 0 0 0 0 0 0 0 0 0 0 0 0 0 0 0 0 0 0 0 0 0 0 0 0 0 0 0 0 0 0 0 0 0 0 0 0 0 0 0 0 0 0 0 0 0 0 0 0 0 0 0 0 0 0 0 0 0 0 0 0 0 0 0 0 0 0 0 0 0 0 0 0 0 0 0 0 0 0 0 0 0 0 0 0 0 0 0 0 0 0 0 0 0 0 0 0 0 0 0 0 0 0 0 0 0 0 0 0 0 0 0 0 0 0 0 0 0 0 0 0 0 0 0 0 0 0 0 0 0 0 0 0 0 0 0 0 0 0 0 0 0 0 0 0 0 0 0 0 0 0 0 0 0 0 0 0 0 0 0 0 0 0 0 0 0 0 0 0 0 0 0 0 0 0 0 0 0 0 0 0 0 0 0 0 0 0 0 0 0 0 0 0 0 0 0 0 0 0 0 0 0 0 0 0 0 0 0 0 0 0 0 0 0 0 0 0 0 0 0 0 0 0 0 0 0 0 0 
#OUTPUT END
Model has been successfully processed
